c File: flat50_3_0.col
c
c SOURCE: Joseph Culberson (joe@cs.ualberta.ca)
c DESCRIPTION: Quasi-random coloring problem
c              generated with flatness = 0
c                             probability = 0.139
c                             known coloring = 3
c                             random seed = 1897
c              Creation Date:  Tue Jun  9 12:20:36 1998
c Maximum degree = 8 Minimum degree = 1
c p edge 50 115
c cnf created by edge2cnf
p cnf 150 545
-1 -2 0
-1 -3 0
-2 -3 0
1 2 3 0
-4 -5 0
-4 -6 0
-5 -6 0
4 5 6 0
-7 -8 0
-7 -9 0
-8 -9 0
7 8 9 0
-10 -11 0
-10 -12 0
-11 -12 0
10 11 12 0
-13 -14 0
-13 -15 0
-14 -15 0
13 14 15 0
-16 -17 0
-16 -18 0
-17 -18 0
16 17 18 0
-19 -20 0
-19 -21 0
-20 -21 0
19 20 21 0
-22 -23 0
-22 -24 0
-23 -24 0
22 23 24 0
-25 -26 0
-25 -27 0
-26 -27 0
25 26 27 0
-28 -29 0
-28 -30 0
-29 -30 0
28 29 30 0
-31 -32 0
-31 -33 0
-32 -33 0
31 32 33 0
-34 -35 0
-34 -36 0
-35 -36 0
34 35 36 0
-37 -38 0
-37 -39 0
-38 -39 0
37 38 39 0
-40 -41 0
-40 -42 0
-41 -42 0
40 41 42 0
-43 -44 0
-43 -45 0
-44 -45 0
43 44 45 0
-46 -47 0
-46 -48 0
-47 -48 0
46 47 48 0
-49 -50 0
-49 -51 0
-50 -51 0
49 50 51 0
-52 -53 0
-52 -54 0
-53 -54 0
52 53 54 0
-55 -56 0
-55 -57 0
-56 -57 0
55 56 57 0
-58 -59 0
-58 -60 0
-59 -60 0
58 59 60 0
-61 -62 0
-61 -63 0
-62 -63 0
61 62 63 0
-64 -65 0
-64 -66 0
-65 -66 0
64 65 66 0
-67 -68 0
-67 -69 0
-68 -69 0
67 68 69 0
-70 -71 0
-70 -72 0
-71 -72 0
70 71 72 0
-73 -74 0
-73 -75 0
-74 -75 0
73 74 75 0
-76 -77 0
-76 -78 0
-77 -78 0
76 77 78 0
-79 -80 0
-79 -81 0
-80 -81 0
79 80 81 0
-82 -83 0
-82 -84 0
-83 -84 0
82 83 84 0
-85 -86 0
-85 -87 0
-86 -87 0
85 86 87 0
-88 -89 0
-88 -90 0
-89 -90 0
88 89 90 0
-91 -92 0
-91 -93 0
-92 -93 0
91 92 93 0
-94 -95 0
-94 -96 0
-95 -96 0
94 95 96 0
-97 -98 0
-97 -99 0
-98 -99 0
97 98 99 0
-100 -101 0
-100 -102 0
-101 -102 0
100 101 102 0
-103 -104 0
-103 -105 0
-104 -105 0
103 104 105 0
-106 -107 0
-106 -108 0
-107 -108 0
106 107 108 0
-109 -110 0
-109 -111 0
-110 -111 0
109 110 111 0
-112 -113 0
-112 -114 0
-113 -114 0
112 113 114 0
-115 -116 0
-115 -117 0
-116 -117 0
115 116 117 0
-118 -119 0
-118 -120 0
-119 -120 0
118 119 120 0
-121 -122 0
-121 -123 0
-122 -123 0
121 122 123 0
-124 -125 0
-124 -126 0
-125 -126 0
124 125 126 0
-127 -128 0
-127 -129 0
-128 -129 0
127 128 129 0
-130 -131 0
-130 -132 0
-131 -132 0
130 131 132 0
-133 -134 0
-133 -135 0
-134 -135 0
133 134 135 0
-136 -137 0
-136 -138 0
-137 -138 0
136 137 138 0
-139 -140 0
-139 -141 0
-140 -141 0
139 140 141 0
-142 -143 0
-142 -144 0
-143 -144 0
142 143 144 0
-145 -146 0
-145 -147 0
-146 -147 0
145 146 147 0
-148 -149 0
-148 -150 0
-149 -150 0
148 149 150 0
-61 -1 0
-62 -2 0
-63 -3 0
-70 -1 0
-71 -2 0
-72 -3 0
-100 -1 0
-101 -2 0
-102 -3 0
-136 -1 0
-137 -2 0
-138 -3 0
-85 -4 0
-86 -5 0
-87 -6 0
-136 -4 0
-137 -5 0
-138 -6 0
-52 -7 0
-53 -8 0
-54 -9 0
-70 -7 0
-71 -8 0
-72 -9 0
-91 -7 0
-92 -8 0
-93 -9 0
-55 -10 0
-56 -11 0
-57 -12 0
-85 -10 0
-86 -11 0
-87 -12 0
-97 -10 0
-98 -11 0
-99 -12 0
-100 -10 0
-101 -11 0
-102 -12 0
-124 -10 0
-125 -11 0
-126 -12 0
-76 -13 0
-77 -14 0
-78 -15 0
-100 -13 0
-101 -14 0
-102 -15 0
-118 -13 0
-119 -14 0
-120 -15 0
-142 -13 0
-143 -14 0
-144 -15 0
-148 -13 0
-149 -14 0
-150 -15 0
-79 -16 0
-80 -17 0
-81 -18 0
-115 -16 0
-116 -17 0
-117 -18 0
-121 -16 0
-122 -17 0
-123 -18 0
-127 -16 0
-128 -17 0
-129 -18 0
-70 -19 0
-71 -20 0
-72 -21 0
-76 -19 0
-77 -20 0
-78 -21 0
-82 -19 0
-83 -20 0
-84 -21 0
-94 -19 0
-95 -20 0
-96 -21 0
-118 -19 0
-119 -20 0
-120 -21 0
-133 -19 0
-134 -20 0
-135 -21 0
-142 -19 0
-143 -20 0
-144 -21 0
-121 -22 0
-122 -23 0
-123 -24 0
-58 -25 0
-59 -26 0
-60 -27 0
-64 -25 0
-65 -26 0
-66 -27 0
-76 -25 0
-77 -26 0
-78 -27 0
-85 -25 0
-86 -26 0
-87 -27 0
-118 -25 0
-119 -26 0
-120 -27 0
-133 -25 0
-134 -26 0
-135 -27 0
-142 -25 0
-143 -26 0
-144 -27 0
-73 -28 0
-74 -29 0
-75 -30 0
-112 -28 0
-113 -29 0
-114 -30 0
-118 -28 0
-119 -29 0
-120 -30 0
-130 -28 0
-131 -29 0
-132 -30 0
-139 -28 0
-140 -29 0
-141 -30 0
-94 -31 0
-95 -32 0
-96 -33 0
-109 -31 0
-110 -32 0
-111 -33 0
-115 -31 0
-116 -32 0
-117 -33 0
-127 -31 0
-128 -32 0
-129 -33 0
-133 -31 0
-134 -32 0
-135 -33 0
-52 -34 0
-53 -35 0
-54 -36 0
-55 -34 0
-56 -35 0
-57 -36 0
-88 -34 0
-89 -35 0
-90 -36 0
-97 -34 0
-98 -35 0
-99 -36 0
-106 -34 0
-107 -35 0
-108 -36 0
-115 -34 0
-116 -35 0
-117 -36 0
-130 -34 0
-131 -35 0
-132 -36 0
-139 -34 0
-140 -35 0
-141 -36 0
-61 -37 0
-62 -38 0
-63 -39 0
-73 -37 0
-74 -38 0
-75 -39 0
-97 -37 0
-98 -38 0
-99 -39 0
-121 -37 0
-122 -38 0
-123 -39 0
-124 -37 0
-125 -38 0
-126 -39 0
-136 -37 0
-137 -38 0
-138 -39 0
-52 -40 0
-53 -41 0
-54 -42 0
-73 -40 0
-74 -41 0
-75 -42 0
-76 -40 0
-77 -41 0
-78 -42 0
-88 -40 0
-89 -41 0
-90 -42 0
-112 -40 0
-113 -41 0
-114 -42 0
-139 -40 0
-140 -41 0
-141 -42 0
-148 -40 0
-149 -41 0
-150 -42 0
-70 -43 0
-71 -44 0
-72 -45 0
-64 -46 0
-65 -47 0
-66 -48 0
-103 -46 0
-104 -47 0
-105 -48 0
-148 -46 0
-149 -47 0
-150 -48 0
-58 -49 0
-59 -50 0
-60 -51 0
-85 -49 0
-86 -50 0
-87 -51 0
-94 -49 0
-95 -50 0
-96 -51 0
-124 -49 0
-125 -50 0
-126 -51 0
-133 -49 0
-134 -50 0
-135 -51 0
-112 -52 0
-113 -53 0
-114 -54 0
-118 -52 0
-119 -53 0
-120 -54 0
-136 -52 0
-137 -53 0
-138 -54 0
-142 -52 0
-143 -53 0
-144 -54 0
-115 -55 0
-116 -56 0
-117 -57 0
-118 -55 0
-119 -56 0
-120 -57 0
-124 -55 0
-125 -56 0
-126 -57 0
-148 -55 0
-149 -56 0
-150 -57 0
-115 -58 0
-116 -59 0
-117 -60 0
-121 -58 0
-122 -59 0
-123 -60 0
-142 -61 0
-143 -62 0
-144 -63 0
-127 -64 0
-128 -65 0
-129 -66 0
-136 -64 0
-137 -65 0
-138 -66 0
-139 -64 0
-140 -65 0
-141 -66 0
-142 -64 0
-143 -65 0
-144 -66 0
-109 -67 0
-110 -68 0
-111 -69 0
-106 -70 0
-107 -71 0
-108 -72 0
-130 -70 0
-131 -71 0
-132 -72 0
-139 -73 0
-140 -74 0
-141 -75 0
-118 -76 0
-119 -77 0
-120 -78 0
-109 -79 0
-110 -80 0
-111 -81 0
-142 -79 0
-143 -80 0
-144 -81 0
-115 -85 0
-116 -86 0
-117 -87 0
-139 -85 0
-140 -86 0
-141 -87 0
-103 -88 0
-104 -89 0
-105 -90 0
-109 -88 0
-110 -89 0
-111 -90 0
-127 -88 0
-128 -89 0
-129 -90 0
-145 -88 0
-146 -89 0
-147 -90 0
-139 -91 0
-140 -92 0
-141 -93 0
-103 -94 0
-104 -95 0
-105 -96 0
-109 -97 0
-110 -98 0
-111 -99 0
-133 -97 0
-134 -98 0
-135 -99 0
-136 -97 0
-137 -98 0
-138 -99 0
-118 -100 0
-119 -101 0
-120 -102 0
-127 -100 0
-128 -101 0
-129 -102 0
-136 -100 0
-137 -101 0
-138 -102 0
-148 -100 0
-149 -101 0
-150 -102 0
